sat
(:eliminated-vars              1
 :max-memory                   18.08
 :memory                       17.98
 :nlsat-irrational-assignments 2
 :nlsat-propagations           12
 :nlsat-stages                 5
 :num-allocs                   5927
 :rlimit-count                 1600
 :time                         0.00
 :total-time                   0.01)
